data/solutions/recovery/degenerate/moderate/flexible/degenerate_moderate_instance36/30.sol
Elapsed time: 13.05
Upper bound: 1410088426.0
Planning weighted value: 37144865964.0
C[0]=1410088426.0
C[1]=1410076332.0
C[2]=1410030572.0
C[3]=1409807684.0
C[4]=0.0
y[0]=2
y[1]=3
y[2]=0
y[3]=2
y[4]=1
y[5]=1
y[6]=2
y[7]=2
y[8]=3
y[9]=2
y[10]=2
y[11]=2
y[12]=3
y[13]=0
y[14]=0
y[15]=1
y[16]=2
y[17]=0
y[18]=0
y[19]=3
y[20]=2
y[21]=3
y[22]=2
y[23]=2
y[24]=2
y[25]=0
y[26]=0
y[27]=3
y[28]=3
y[29]=2
y[30]=0
y[31]=1
y[32]=1
y[33]=2
y[34]=0
y[35]=0
y[36]=1
y[37]=2
y[38]=2
y[39]=1
y[40]=1
y[41]=2
y[42]=3
y[43]=2
y[44]=0
y[45]=3
