data/solutions/recovery/degenerate/moderate/flexible/degenerate_moderate_instance36/30.log

Log started (V12.6.3.0) Sat Apr 21 11:27:58 2018

New value for default parallel thread count: 1

Problem '/tmp/tmpk9QXOa.pyomo.lp' read.
Read time = 0.00 sec. (0.10 ticks)

Problem name         : /tmp/tmpk9QXOa.pyomo.lp
Objective sense      : Minimize
Variables            :     237  [Nneg: 1,  Binary: 230,  General Integer: 6]
Objective nonzeros   :       1
Linear constraints   :     104  [Less: 51,  Equal: 53]
  Nonzeros           :    6962
  RHS nonzeros       :      93

Variables            : Min LB: 0.000000         Max UB: 1.000000       
Objective nonzeros   : Min   : 1.000000         Max   : 1.000000       
Linear constraints   :
  Nonzeros           : Min   : 1.000000         Max   : 2.657465e+08   
  RHS nonzeros       : Min   : 1.000000         Max   : 5.000000       
Tried aggregator 1 time.
MIP Presolve eliminated 49 rows and 48 columns.
Reduced MIP has 55 rows, 189 columns, and 485 nonzeros.
Reduced MIP has 184 binaries, 5 generals, 0 SOSs, and 0 indicators.
Presolve time = 0.00 sec. (1.30 ticks)
Found incumbent of value 2.9915728e+09 after 0.00 sec. (1.53 ticks)
Probing time = 0.00 sec. (0.37 ticks)
Tried aggregator 1 time.
Reduced MIP has 55 rows, 189 columns, and 485 nonzeros.
Reduced MIP has 184 binaries, 5 generals, 0 SOSs, and 0 indicators.
Presolve time = 0.00 sec. (0.31 ticks)
Probing time = 0.00 sec. (0.37 ticks)
Clique table members: 46.
MIP emphasis: balance optimality and feasibility.
MIP search method: dynamic search.
Parallel mode: none, using 1 thread.
Root relaxation solution time = 0.00 sec. (0.61 ticks)

        Nodes                                         Cuts/
   Node  Left     Objective  IInf  Best Integer    Best Bound    ItCnt     Gap

*     0+    0                       2.99157e+09        0.0000           100.00%
      0     0   1.41000e+09    13   2.99157e+09   1.41000e+09      104   52.87%
*     0+    0                       1.57869e+09   1.41000e+09            10.69%
*     0+    0                       1.43930e+09   1.41000e+09             2.04%
*     0+    0                       1.42181e+09   1.41000e+09             0.83%
*     0+    0                       1.41575e+09   1.41000e+09             0.41%
*     0+    0                       1.41234e+09   1.41000e+09             0.17%
      0     2   1.41000e+09    13   1.41234e+09   1.41000e+09      104    0.17%
Elapsed time = 0.01 sec. (8.03 ticks, tree = 0.01 MB, solutions = 6)
*    46    36      integral     0   1.41228e+09   1.41000e+09      254    0.16%
*    90+   62                       1.41199e+09   1.41000e+09             0.14%
*   587   287      integral     0   1.41167e+09   1.41000e+09     1837    0.12%
*   960+  398                       1.41147e+09   1.41000e+09             0.10%
*  2000+  454                       1.41117e+09   1.41000e+09             0.08%
*  2003   420      integral     0   1.41047e+09   1.41000e+09     4500    0.03%
   2609   352   1.41000e+09     8   1.41047e+09   1.41000e+09     6244    0.03%
   2610   352   1.41000e+09     6   1.41047e+09   1.41000e+09     6247    0.03%
   2611   350    infeasible         1.41047e+09   1.41000e+09     6247    0.03%
   2612   351   1.41000e+09     7   1.41047e+09   1.41000e+09     6249    0.03%
   2613   351   1.41000e+09     6   1.41047e+09   1.41000e+09     6250    0.03%
   2614   351   1.41000e+09     6   1.41047e+09   1.41000e+09     6251    0.03%
   2615   350   1.41000e+09     8   1.41047e+09   1.41000e+09     6257    0.03%
   2616   351   1.41000e+09     6   1.41047e+09   1.41000e+09     6263    0.03%
   2617   349        cutoff         1.41047e+09   1.41000e+09     6266    0.03%
*  5016+ 1126                       1.41031e+09   1.41000e+09             0.02%
*  5116+ 1169                       1.41019e+09   1.41000e+09             0.01%
   6360  1796   1.41000e+09     7   1.41019e+09   1.41000e+09    15282    0.01%
Elapsed time = 1.19 sec. (961.80 ticks, tree = 0.56 MB, solutions = 14)
  14244  3557   1.41000e+09     6   1.41019e+09   1.41000e+09    38592    0.01%
  14245  3558   1.41000e+09     6   1.41019e+09   1.41000e+09    38593    0.01%
  14246  3559   1.41000e+09     6   1.41019e+09   1.41000e+09    38594    0.01%
  14247  3558        cutoff         1.41019e+09   1.41000e+09    38596    0.01%
  14248  3557    infeasible         1.41019e+09   1.41000e+09    38596    0.01%
  14249  3556        cutoff         1.41019e+09   1.41000e+09    38599    0.01%
  14250  3557   1.41000e+09     6   1.41019e+09   1.41000e+09    38600    0.01%
  14251  3558   1.41000e+09     6   1.41019e+09   1.41000e+09    38601    0.01%
  14252  3559   1.41000e+09     5   1.41019e+09   1.41000e+09    38602    0.01%
  14253  3560   1.41000e+09     6   1.41019e+09   1.41000e+09    38604    0.01%
Elapsed time = 2.31 sec. (1916.13 ticks, tree = 1.13 MB, solutions = 14)
  23824  5217   1.41000e+09     6   1.41019e+09   1.41000e+09    65291    0.01%
  23825  5216        cutoff         1.41019e+09   1.41000e+09    65298    0.01%
  23826  5217   1.41000e+09     6   1.41019e+09   1.41000e+09    65299    0.01%
  23827  5218   1.41000e+09     6   1.41019e+09   1.41000e+09    65300    0.01%
  23828  5217        cutoff         1.41019e+09   1.41000e+09    65310    0.01%
  23829  5216        cutoff         1.41019e+09   1.41000e+09    65318    0.01%
  23830  5217   1.41000e+09     7   1.41019e+09   1.41000e+09    65322    0.01%
  23831  5218   1.41000e+09     7   1.41019e+09   1.41000e+09    65323    0.01%
  23832  5219   1.41000e+09     5   1.41019e+09   1.41000e+09    65324    0.01%
  23833  5220   1.41000e+09     5   1.41019e+09   1.41000e+09    65325    0.01%
Elapsed time = 3.47 sec. (2870.74 ticks, tree = 1.71 MB, solutions = 14)
  32917  6149   1.41000e+09     6   1.41019e+09   1.41000e+09    93954    0.01%
  32918  6150   1.41000e+09     6   1.41019e+09   1.41000e+09    93955    0.01%
  32919  6151   1.41000e+09     6   1.41019e+09   1.41000e+09    93956    0.01%
  32920  6152   1.41000e+09     6   1.41019e+09   1.41000e+09    93957    0.01%
  32921  6153   1.41000e+09     6   1.41019e+09   1.41000e+09    93958    0.01%
  32922  6154   1.41000e+09     6   1.41019e+09   1.41000e+09    93959    0.01%
  32923  6155   1.41000e+09     6   1.41019e+09   1.41000e+09    93960    0.01%
  32924  6154    infeasible         1.41019e+09   1.41000e+09    93964    0.01%
  32925  6155   1.41000e+09     8   1.41019e+09   1.41000e+09    93966    0.01%
  32926  6156   1.41000e+09     6   1.41019e+09   1.41000e+09    93968    0.01%
Elapsed time = 4.62 sec. (3825.11 ticks, tree = 1.98 MB, solutions = 14)
  41118  6743        cutoff         1.41019e+09   1.41000e+09   120920    0.01%
  41119  6742        cutoff         1.41019e+09   1.41000e+09   120924    0.01%
  41120  6741        cutoff         1.41019e+09   1.41000e+09   120928    0.01%
  41121  6740        cutoff         1.41019e+09   1.41000e+09   120935    0.01%
  41122  6739        cutoff         1.41019e+09   1.41000e+09   120946    0.01%
  41123  6740   1.41000e+09     8   1.41019e+09   1.41000e+09   120950    0.01%
  41124  6741   1.41015e+09     4   1.41019e+09   1.41000e+09   120955    0.01%
  41125  6742   1.41015e+09     6   1.41019e+09   1.41000e+09   120957    0.01%
  41126  6743   1.41015e+09     4   1.41019e+09   1.41000e+09   120958    0.01%
  41127  6744   1.41015e+09     4   1.41019e+09   1.41000e+09   120959    0.01%
Elapsed time = 5.78 sec. (4779.78 ticks, tree = 2.17 MB, solutions = 14)
  50184  7865        cutoff         1.41019e+09   1.41000e+09   147666    0.01%
  50185  7864        cutoff         1.41019e+09   1.41000e+09   147672    0.01%
  50186  7863    infeasible         1.41019e+09   1.41000e+09   147676    0.01%
  50187  7862        cutoff         1.41019e+09   1.41000e+09   147679    0.01%
  50188  7863   1.41000e+09     6   1.41019e+09   1.41000e+09   147685    0.01%
  50189  7864   1.41000e+09     6   1.41019e+09   1.41000e+09   147687    0.01%
  50190  7865   1.41000e+09     6   1.41019e+09   1.41000e+09   147689    0.01%
  50191  7866   1.41000e+09     6   1.41019e+09   1.41000e+09   147690    0.01%
  50192  7865        cutoff         1.41019e+09   1.41000e+09   147693    0.01%
  50193  7864        cutoff         1.41019e+09   1.41000e+09   147695    0.01%
Elapsed time = 6.94 sec. (5734.88 ticks, tree = 2.50 MB, solutions = 14)
* 53586  7961      integral     0   1.41017e+09   1.41000e+09   156486    0.01%
  58746  8479        cutoff         1.41017e+09   1.41000e+09   172471    0.01%
  58747  8478        cutoff         1.41017e+09   1.41000e+09   172476    0.01%
  58748  8477        cutoff         1.41017e+09   1.41000e+09   172482    0.01%
  58749  8476        cutoff         1.41017e+09   1.41000e+09   172488    0.01%
  58750  8475        cutoff         1.41017e+09   1.41000e+09   172492    0.01%
  58751  8474        cutoff         1.41017e+09   1.41000e+09   172502    0.01%
  58752  8473        cutoff         1.41017e+09   1.41000e+09   172511    0.01%
  58753  8472        cutoff         1.41017e+09   1.41000e+09   172513    0.01%
  58754  8471        cutoff         1.41017e+09   1.41000e+09   172519    0.01%
  58755  8470        cutoff         1.41017e+09   1.41000e+09   172528    0.01%
Elapsed time = 8.10 sec. (6690.16 ticks, tree = 2.90 MB, solutions = 15)
* 61066  8752      integral     0   1.41015e+09   1.41000e+09   180902    0.01%
  67826 10921        cutoff         1.41015e+09   1.41000e+09   202393    0.01%
  67827 10920        cutoff         1.41015e+09   1.41000e+09   202398    0.01%
  67828 10919        cutoff         1.41015e+09   1.41000e+09   202406    0.01%
  67829 10918        cutoff         1.41015e+09   1.41000e+09   202408    0.01%
  67830 10917        cutoff         1.41015e+09   1.41000e+09   202412    0.01%
  67831 10918   1.41000e+09     8   1.41015e+09   1.41000e+09   202414    0.01%
  67832 10919   1.41000e+09     7   1.41015e+09   1.41000e+09   202415    0.01%
  67833 10920   1.41000e+09     6   1.41015e+09   1.41000e+09   202417    0.01%
  67834 10921   1.41000e+09     6   1.41015e+09   1.41000e+09   202418    0.01%
  67835 10922   1.41000e+09     6   1.41015e+09   1.41000e+09   202420    0.01%
Elapsed time = 9.26 sec. (7645.52 ticks, tree = 3.60 MB, solutions = 16)
  75921 11501        cutoff         1.41015e+09   1.41000e+09   227972    0.01%
  75922 11502   1.41000e+09     6   1.41015e+09   1.41000e+09   227983    0.01%
  75923 11501        cutoff         1.41015e+09   1.41000e+09   227986    0.01%
  75924 11500    infeasible         1.41015e+09   1.41000e+09   227999    0.01%
  75925 11501   1.41000e+09     8   1.41015e+09   1.41000e+09   228001    0.01%
  75926 11502   1.41000e+09     8   1.41015e+09   1.41000e+09   228002    0.01%
  75927 11503   1.41000e+09     8   1.41015e+09   1.41000e+09   228004    0.01%
  75928 11504   1.41000e+09     8   1.41015e+09   1.41000e+09   228005    0.01%
  75929 11505   1.41000e+09     8   1.41015e+09   1.41000e+09   228006    0.01%
  75930 11504    infeasible         1.41015e+09   1.41000e+09   228006    0.01%
Elapsed time = 10.47 sec. (8600.11 ticks, tree = 3.77 MB, solutions = 16)
  84609 12591        cutoff         1.41015e+09   1.41000e+09   253654    0.01%
  84610 12590        cutoff         1.41015e+09   1.41000e+09   253658    0.01%
  84611 12589        cutoff         1.41015e+09   1.41000e+09   253667    0.01%
  84612 12588        cutoff         1.41015e+09   1.41000e+09   253679    0.01%
  84613 12587        cutoff         1.41015e+09   1.41000e+09   253685    0.01%
  84614 12586    infeasible         1.41015e+09   1.41000e+09   253685    0.01%
  84615 12585    infeasible         1.41015e+09   1.41000e+09   253685    0.01%
  84616 12584        cutoff         1.41015e+09   1.41000e+09   253689    0.01%
  84617 12583    infeasible         1.41015e+09   1.41000e+09   253689    0.01%
* 93876 13360      integral     0   1.41009e+09   1.41000e+09   281489    0.01%

Mixed integer rounding cuts applied:  2
Gomory fractional cuts applied:  1

Root node processing (before b&c):
  Real time             =    0.01 sec. (8.05 ticks)
Sequential b&c:
  Real time             =   12.99 sec. (10673.60 ticks)
                          ------------
Total (root+branch&cut) =   13.00 sec. (10681.65 ticks)

Solution pool: 17 solutions saved.

MIP - Integer optimal, tolerance (0.0001/1e-06):  Objective =  1.4100884260e+09
Current MIP best bound =  1.4100007540e+09 (gap = 87672, 0.01%)
Solution time =   13.00 sec.  Iterations = 281489  Nodes = 93877 (13360)
Deterministic time = 10681.65 ticks  (821.56 ticks/sec)


Incumbent solution written to file '/tmp/tmpjwcto7.cplex.sol'.
